
Gurobi 6.0.4 (win64) logging started 06/14/15 17:40:52

Read LP format model from file E:\Eigene Dateien\Downloads\Michi shit\VRPTWMS-master\VRPTWMS\instances\mip\fuel\N9-C_DV100-C_SV25_F5_5_No_1.lp
Reading time = 0.00 seconds
(null): 514 rows, 251 columns, 2154 nonzeros
Optimize a model with 514 rows, 251 columns and 2154 nonzeros
Model has 810 quadratic constraints
WARNING: Only barrier available for SOCP models
Coefficient statistics:
  Matrix range    [1e+00, 1e+02]
  Objective range [4e+00, 1e+03]
  Bounds range    [1e+00, 1e+02]
  RHS range       [1e+00, 1e+02]
Presolve removed 51 rows and 35 columns
Presolve time: 0.06s
Presolved: 1751 rows, 886 columns, 8555 nonzeros
Variable types: 618 continuous, 268 integer (220 binary)
Found heuristic solution: objective 10567.570000
Optimize a model with 1751 rows, 886 columns and 8555 nonzeros
Coefficient statistics:
  Matrix range    [1e+00, 1e+02]
  Objective range [4e+00, 1e+03]
  Bounds range    [1e-01, 1e+02]
  RHS range       [1e+00, 1e+02]

Concurrent LP optimizer: dual simplex and barrier
Showing barrier log only...

Presolve removed 160 rows and 103 columns
Presolved: 1591 rows, 784 columns, 7803 nonzeros

Root barrier log...

Ordering time: 0.02s

Barrier performed 0 iterations in 0.10 seconds
Barrier solve interrupted - model solved by another algorithm


Solved with dual simplex
Solved in 61 iterations and 0.10 seconds
Optimal objective  1.176836662e+03

Root relaxation: objective 1.176837e+03, 61 iterations, 0.03 seconds

    Nodes    |    Current Node    |     Objective Bounds      |     Work
 Expl Unexpl |  Obj  Depth IntInf | Incumbent    BestBd   Gap | It/Node Time

     0     0 1176.83666    0   23 10567.5700 1176.83666  88.9%     -    0s
H    0     0                    8524.6400000 1176.83666  86.2%     -    0s
     0     0 1195.29208    0   40 8524.64000 1195.29208  86.0%     -    0s
     0     0 1388.00833    0   44 8524.64000 1388.00833  83.7%     -    0s
     0     0 1396.56667    0   52 8524.64000 1396.56667  83.6%     -    0s
     0     0 1438.35784    0   60 8524.64000 1438.35784  83.1%     -    0s
     0     0 1450.02611    0   56 8524.64000 1450.02611  83.0%     -    0s
     0     0 1454.53958    0   59 8524.64000 1454.53958  82.9%     -    0s
     0     0 1454.53958    0   58 8524.64000 1454.53958  82.9%     -    0s
     0     0 1454.53958    0   59 8524.64000 1454.53958  82.9%     -    0s
     0     0 1454.53958    0   58 8524.64000 1454.53958  82.9%     -    0s
     0     0 1454.53958    0   57 8524.64000 1454.53958  82.9%     -    0s
     0     0 1454.53958    0   57 8524.64000 1454.53958  82.9%     -    0s
     0     2 1454.53958    0   57 8524.64000 1454.53958  82.9%     -    0s
H   27    24                    7471.6400000 1565.80826  79.0%  21.0    0s
H   55    48                    7442.0800000 1565.80826  79.0%  19.9    0s
H  194   159                    6464.3900000 2214.73792  65.7%  21.9    0s
H  286   232                    5463.2800000 2215.50360  59.4%  27.4    0s
H  521   368                    5450.8700000 2225.24478  59.2%  27.4    0s
H  569   395                    5439.6500000 2226.89459  59.1%  26.8    0s
H  630   439                    5414.8200000 2226.89459  58.9%  26.6    0s
H 1028   586                    4414.8100000 2241.29174  49.2%  26.3    0s
H 1324   670                    4412.1300000 2241.29174  49.2%  30.2    1s
H 1340   648                    4396.8800000 2241.29174  49.0%  30.1    1s
H 1381   616                    4387.8900000 2241.29174  48.9%  30.1    1s
H 1597   635                    4384.4000000 2241.29174  48.9%  31.4    1s
H 1631   620                    4384.0800000 2241.29174  48.9%  31.4    1s
* 2265   695              38    4354.0600000 2245.38203  48.4%  32.2    1s
H 2640   812                    4353.9600000 2252.17263  48.3%  34.9    2s
H 2860   869                    4347.7200000 2256.68541  48.1%  36.3    2s
H 4277  1018                    3348.8300000 2283.06082  31.8%  41.0    4s
H 4278   968                    3332.5800000 2285.75535  31.4%  41.0    4s
H 4399   968                    3330.8300000 2286.85251  31.3%  41.2    4s
H 5258   963                    3321.4800000 2310.35418  30.4%  43.2    4s
  5295   934     cutoff   26      3321.48000 2312.41015  30.4%  43.2    5s

Cutting planes:
  Learned: 3
  Gomory: 2
  Cover: 6
  Implied bound: 4
  Clique: 2
  MIR: 4
  GUB cover: 2
  Network: 1

Explored 8102 nodes (365911 simplex iterations) in 7.13 seconds
Thread count was 4 (of 4 available processors)

Optimal solution found (tolerance 1.00e-04)
Best objective 3.321480000000e+03, best bound 3.321480000000e+03, gap 0.0%
k_c1	95.0
k_c2	91.0
k_c3	100.0
k_c4	4.9999999999999964
k_c5	88.0
k_c6	100.0
k_c7	97.0
k_c8	9.999999999999996
k_c9	4.0
k_dN	-0.0
o_1	0.0
o_2	-0.0
o_3	-0.0
o_4	-0.0
o_5	0.0
o_6	1.0
o_7	-0.0
o_8	-0.0
o_9	-0.0
p_1	0.0
p_2	1.0
p_3	0.0
p_4	1.0
p_5	0.0
p_6	1.0
p_7	0.0
p_8	0.0
p_9	1.0
phi_c1	3.0
phi_c2	1.0
phi_c3	3.0
phi_c4	-0.0
phi_c5	2.0
phi_c6	3.0
phi_c7	2.0
phi_c8	1.0
phi_c9	-0.0
phi_dN	-0.0
pi_c1	-0.0
pi_c2	19.0
pi_c3	-0.0
pi_c4	5.000000000000011
pi_c5	-0.0
pi_c6	21.0
pi_c7	-0.0
pi_c8	-0.0
pi_c9	10.00000000000001
pi_dN	-0.0
tauD_c1	30.0
tauD_c2	21.000000000000075
tauD_c3	6.999999999999986
tauD_c4	59.0
tauD_c5	49.0
tauD_c6	8.0
tauD_c7	15.0
tauD_c8	50.0
tauD_c9	65.0
tauD_d0	-0.0
tauD_dN	100.0
tauS_c1	85.0
tauS_c2	27.0
tauS_c3	5.0
tauS_c4	84.0
tauS_c5	5.0
tauS_c6	8.0
tauS_c7	6.0
tauS_c8	-0.0
tauS_c9	44.0
tauS_d0	-0.0
tauS_dN	100.0
x_c1_c8	1.0
x_c2_c5	1.0
x_c3_c7	1.0
x_c4_dN	1.0
x_c5_c9	1.0
x_c6_c1	1.0
x_c7_c2	1.0
x_c8_c4	1.0
x_c9_dN	1.0
x_d0_c3	1.0
x_d0_c6	1.0
z_c2_c9	1.0
z_c4_dN	1.0
z_c6_c2	1.0
z_c9_c4	1.0
z_d0_c6	1.0
